c "579304.clq"
p edge 140 544
e 1 5
e 1 6
e 1 49
e 1 99
e 2 5
e 2 6
e 2 7
e 2 13
e 2 19
e 2 28
e 2 36
e 2 38
e 2 39
e 2 65
e 2 71
e 2 74
e 2 89
e 2 93
e 2 138
e 3 5
e 3 6
e 3 7
e 3 8
e 3 10
e 3 11
e 3 13
e 3 23
e 3 27
e 3 28
e 3 35
e 3 38
e 3 40
e 3 56
e 3 64
e 3 72
e 3 74
e 3 80
e 3 82
e 3 83
e 3 99
e 3 106
e 3 108
e 3 120
e 3 121
e 3 123
e 4 5
e 4 7
e 4 9
e 4 12
e 4 15
e 4 18
e 4 55
e 4 56
e 4 70
e 5 6
e 5 7
e 5 8
e 5 9
e 5 10
e 5 12
e 5 13
e 5 14
e 5 15
e 5 20
e 5 23
e 5 27
e 5 29
e 5 33
e 5 35
e 5 36
e 5 42
e 5 49
e 5 51
e 5 53
e 5 54
e 5 58
e 5 63
e 5 64
e 5 93
e 5 94
e 5 96
e 5 100
e 5 102
e 5 114
e 6 8
e 6 9
e 6 10
e 6 12
e 6 13
e 6 14
e 6 15
e 6 17
e 6 25
e 6 26
e 6 33
e 6 34
e 6 44
e 6 57
e 6 63
e 6 67
e 6 75
e 6 89
e 6 92
e 6 97
e 6 98
e 6 106
e 6 108
e 6 113
e 6 115
e 6 122
e 6 134
e 7 8
e 7 19
e 7 20
e 7 24
e 7 25
e 7 26
e 7 31
e 7 34
e 7 40
e 7 43
e 7 45
e 7 48
e 7 51
e 7 90
e 7 95
e 7 118
e 7 119
e 7 130
e 7 131
e 8 9
e 8 10
e 8 11
e 8 14
e 8 16
e 8 17
e 8 18
e 8 20
e 8 21
e 8 23
e 8 24
e 8 26
e 8 27
e 8 29
e 8 30
e 8 37
e 8 48
e 8 52
e 8 58
e 8 71
e 8 82
e 8 90
e 8 91
e 8 109
e 8 111
e 8 116
e 8 125
e 8 129
e 8 135
e 9 11
e 9 12
e 9 14
e 9 16
e 9 25
e 9 33
e 9 37
e 9 38
e 9 47
e 9 67
e 9 71
e 9 75
e 9 84
e 9 86
e 9 108
e 9 110
e 9 115
e 9 131
e 10 11
e 10 21
e 10 29
e 10 47
e 10 56
e 10 57
e 10 77
e 10 93
e 10 98
e 10 103
e 11 17
e 11 18
e 11 22
e 11 23
e 11 25
e 11 35
e 11 39
e 11 50
e 11 59
e 11 61
e 11 72
e 11 92
e 11 103
e 12 20
e 12 22
e 12 32
e 12 33
e 12 36
e 12 43
e 12 51
e 12 64
e 12 69
e 12 82
e 12 101
e 12 105
e 12 130
e 12 131
e 12 135
e 12 136
e 13 15
e 13 16
e 13 17
e 13 27
e 13 32
e 13 42
e 13 49
e 13 59
e 13 86
e 13 92
e 13 98
e 13 109
e 13 128
e 13 130
e 14 16
e 14 18
e 14 19
e 14 21
e 14 29
e 14 30
e 14 31
e 14 41
e 14 43
e 14 50
e 14 54
e 14 76
e 14 83
e 14 84
e 14 85
e 14 117
e 14 127
e 14 128
e 14 129
e 14 133
e 15 19
e 15 30
e 15 32
e 15 37
e 15 51
e 15 56
e 15 68
e 15 72
e 15 77
e 15 87
e 15 106
e 15 119
e 15 121
e 15 139
e 16 21
e 16 26
e 16 28
e 16 30
e 16 32
e 16 34
e 16 41
e 16 45
e 16 46
e 16 55
e 16 57
e 16 62
e 16 66
e 16 68
e 16 69
e 16 78
e 16 83
e 16 89
e 16 99
e 16 101
e 16 103
e 16 104
e 16 125
e 16 131
e 16 137
e 17 24
e 17 43
e 17 44
e 17 46
e 17 60
e 17 65
e 17 68
e 17 70
e 17 80
e 17 91
e 17 122
e 18 39
e 18 63
e 18 97
e 18 111
e 19 22
e 19 24
e 19 40
e 19 41
e 19 60
e 19 79
e 19 107
e 20 22
e 20 36
e 20 44
e 20 47
e 20 62
e 20 67
e 20 70
e 20 87
e 20 113
e 21 53
e 21 86
e 22 31
e 22 40
e 22 70
e 22 103
e 22 105
e 22 126
e 23 28
e 23 38
e 23 47
e 23 60
e 23 61
e 23 62
e 23 73
e 23 74
e 23 77
e 23 112
e 24 54
e 24 78
e 24 84
e 24 110
e 24 139
e 25 42
e 25 44
e 25 50
e 25 115
e 26 45
e 26 75
e 26 79
e 26 107
e 26 132
e 26 134
e 27 31
e 27 57
e 27 65
e 27 66
e 27 95
e 27 117
e 27 137
e 27 140
e 28 42
e 28 101
e 28 117
e 29 53
e 29 108
e 29 114
e 30 35
e 30 46
e 30 48
e 30 52
e 30 78
e 30 88
e 30 104
e 30 114
e 31 34
e 31 59
e 31 67
e 31 79
e 31 98
e 31 102
e 31 109
e 32 39
e 32 41
e 32 45
e 32 55
e 32 80
e 32 94
e 32 96
e 32 97
e 32 129
e 33 50
e 33 58
e 33 66
e 33 91
e 34 37
e 35 81
e 36 126
e 36 127
e 38 95
e 39 46
e 39 52
e 39 62
e 39 69
e 39 92
e 39 94
e 39 117
e 39 140
e 40 58
e 40 59
e 40 104
e 40 107
e 40 118
e 40 124
e 41 74
e 41 104
e 42 126
e 43 63
e 43 132
e 44 48
e 44 49
e 44 53
e 44 73
e 44 76
e 44 85
e 44 124
e 44 135
e 45 61
e 45 65
e 45 66
e 45 78
e 45 118
e 45 119
e 45 140
e 46 93
e 46 105
e 47 52
e 47 61
e 47 81
e 47 110
e 47 114
e 47 116
e 48 81
e 48 83
e 49 55
e 50 120
e 50 133
e 52 54
e 52 81
e 52 89
e 52 100
e 53 72
e 53 85
e 53 87
e 53 122
e 53 132
e 54 60
e 54 64
e 54 85
e 54 86
e 54 88
e 54 96
e 54 109
e 54 113
e 54 124
e 54 136
e 55 94
e 56 69
e 56 110
e 56 123
e 57 102
e 58 73
e 58 84
e 59 96
e 59 100
e 59 106
e 59 120
e 59 125
e 60 76
e 61 87
e 62 73
e 63 76
e 63 118
e 63 120
e 64 75
e 64 91
e 64 121
e 65 112
e 66 79
e 66 82
e 66 88
e 66 90
e 66 132
e 66 138
e 66 139
e 67 68
e 67 90
e 67 128
e 67 138
e 68 71
e 68 95
e 69 77
e 69 101
e 70 116
e 70 122
e 71 99
e 71 133
e 72 100
e 74 134
e 75 102
e 76 121
e 76 125
e 76 138
e 77 130
e 78 88
e 78 113
e 79 80
e 81 112
e 83 107
e 83 134
e 83 140
e 88 97
e 88 111
e 89 111
e 89 127
e 89 129
e 93 105
e 93 112
e 94 127
e 97 116
e 99 119
e 104 124
e 106 139
e 109 137
e 110 123
e 111 115
e 112 136
e 112 137
e 114 126
e 115 123
e 120 128
e 120 136
e 125 135
e 129 133
